; benchmark generated from python API
(set-info :status unknown)
(declare-fun cell_1_1 () Int)
(declare-fun cell_2_1 () Int)
(declare-fun cell_3_1 () Int)
(declare-fun cell_4_1 () Int)
(declare-fun cell_5_1 () Int)
(declare-fun cell_6_1 () Int)
(declare-fun cell_7_1 () Int)
(declare-fun cell_8_1 () Int)
(declare-fun cell_9_1 () Int)
(declare-fun cell_1_2 () Int)
(declare-fun cell_2_2 () Int)
(declare-fun cell_3_2 () Int)
(declare-fun cell_4_2 () Int)
(declare-fun cell_5_2 () Int)
(declare-fun cell_6_2 () Int)
(declare-fun cell_7_2 () Int)
(declare-fun cell_8_2 () Int)
(declare-fun cell_9_2 () Int)
(declare-fun cell_1_3 () Int)
(declare-fun cell_2_3 () Int)
(declare-fun cell_3_3 () Int)
(declare-fun cell_4_3 () Int)
(declare-fun cell_5_3 () Int)
(declare-fun cell_6_3 () Int)
(declare-fun cell_7_3 () Int)
(declare-fun cell_8_3 () Int)
(declare-fun cell_9_3 () Int)
(declare-fun cell_1_4 () Int)
(declare-fun cell_2_4 () Int)
(declare-fun cell_3_4 () Int)
(declare-fun cell_4_4 () Int)
(declare-fun cell_5_4 () Int)
(declare-fun cell_6_4 () Int)
(declare-fun cell_7_4 () Int)
(declare-fun cell_8_4 () Int)
(declare-fun cell_9_4 () Int)
(declare-fun cell_1_5 () Int)
(declare-fun cell_2_5 () Int)
(declare-fun cell_3_5 () Int)
(declare-fun cell_4_5 () Int)
(declare-fun cell_5_5 () Int)
(declare-fun cell_6_5 () Int)
(declare-fun cell_7_5 () Int)
(declare-fun cell_8_5 () Int)
(declare-fun cell_9_5 () Int)
(declare-fun cell_1_6 () Int)
(declare-fun cell_2_6 () Int)
(declare-fun cell_3_6 () Int)
(declare-fun cell_4_6 () Int)
(declare-fun cell_5_6 () Int)
(declare-fun cell_6_6 () Int)
(declare-fun cell_7_6 () Int)
(declare-fun cell_8_6 () Int)
(declare-fun cell_9_6 () Int)
(declare-fun cell_1_7 () Int)
(declare-fun cell_2_7 () Int)
(declare-fun cell_3_7 () Int)
(declare-fun cell_4_7 () Int)
(declare-fun cell_5_7 () Int)
(declare-fun cell_6_7 () Int)
(declare-fun cell_7_7 () Int)
(declare-fun cell_8_7 () Int)
(declare-fun cell_9_7 () Int)
(declare-fun cell_1_8 () Int)
(declare-fun cell_2_8 () Int)
(declare-fun cell_3_8 () Int)
(declare-fun cell_4_8 () Int)
(declare-fun cell_5_8 () Int)
(declare-fun cell_6_8 () Int)
(declare-fun cell_7_8 () Int)
(declare-fun cell_8_8 () Int)
(declare-fun cell_9_8 () Int)
(declare-fun cell_1_9 () Int)
(declare-fun cell_2_9 () Int)
(declare-fun cell_3_9 () Int)
(declare-fun cell_4_9 () Int)
(declare-fun cell_5_9 () Int)
(declare-fun cell_6_9 () Int)
(declare-fun cell_7_9 () Int)
(declare-fun cell_8_9 () Int)
(declare-fun cell_9_9 () Int)
(assert
 (let (($x1335 (= cell_1_1 9)))
 (let (($x737 (= cell_1_1 8)))
 (let (($x170 (= cell_1_1 7)))
 (let (($x1039 (= cell_1_1 6)))
 (let (($x770 (= cell_1_1 5)))
 (let (($x1756 (= cell_1_1 4)))
 (let (($x1740 (= cell_1_1 3)))
 (let (($x1976 (= cell_1_1 2)))
 (let (($x628 (= cell_1_1 1)))
 (or $x628 $x1976 $x1740 $x1756 $x770 $x1039 $x170 $x737 $x1335)))))))))))
(assert
 (let (($x1596 (= cell_2_1 9)))
 (let (($x326 (= cell_2_1 8)))
 (let (($x636 (= cell_2_1 7)))
 (let (($x2003 (= cell_2_1 6)))
 (let (($x724 (= cell_2_1 5)))
 (let (($x400 (= cell_2_1 4)))
 (let (($x1671 (= cell_2_1 3)))
 (let (($x269 (= cell_2_1 2)))
 (let (($x1159 (= cell_2_1 1)))
 (or $x1159 $x269 $x1671 $x400 $x724 $x2003 $x636 $x326 $x1596)))))))))))
(assert
 (let (($x967 (= cell_3_1 9)))
 (let (($x321 (= cell_3_1 8)))
 (let (($x918 (= cell_3_1 7)))
 (let (($x1331 (= cell_3_1 6)))
 (let (($x1700 (= cell_3_1 5)))
 (let (($x606 (= cell_3_1 4)))
 (let (($x1283 (= cell_3_1 3)))
 (let (($x281 (= cell_3_1 2)))
 (let (($x1215 (= cell_3_1 1)))
 (or $x1215 $x281 $x1283 $x606 $x1700 $x1331 $x918 $x321 $x967)))))))))))
(assert
 (let (($x602 (= cell_4_1 9)))
 (let (($x2116 (= cell_4_1 8)))
 (let (($x808 (= cell_4_1 7)))
 (let (($x1476 (= cell_4_1 6)))
 (let (($x1890 (= cell_4_1 5)))
 (let (($x1985 (= cell_4_1 4)))
 (let (($x1081 (= cell_4_1 3)))
 (let (($x1585 (= cell_4_1 2)))
 (let (($x2014 (= cell_4_1 1)))
 (or $x2014 $x1585 $x1081 $x1985 $x1890 $x1476 $x808 $x2116 $x602)))))))))))
(assert
 (let (($x1344 (= cell_5_1 9)))
 (let (($x109 (= cell_5_1 8)))
 (let (($x535 (= cell_5_1 7)))
 (let (($x957 (= cell_5_1 6)))
 (let (($x632 (= cell_5_1 5)))
 (let (($x520 (= cell_5_1 4)))
 (let (($x95 (= cell_5_1 3)))
 (let (($x1827 (= cell_5_1 2)))
 (let (($x1220 (= cell_5_1 1)))
 (or $x1220 $x1827 $x95 $x520 $x632 $x957 $x535 $x109 $x1344)))))))))))
(assert
 (let (($x1991 (= cell_6_1 9)))
 (let (($x1869 (= cell_6_1 8)))
 (let (($x1366 (= cell_6_1 7)))
 (let (($x2040 (= cell_6_1 6)))
 (let (($x1860 (= cell_6_1 5)))
 (let (($x1399 (= cell_6_1 4)))
 (let (($x551 (= cell_6_1 3)))
 (let (($x2042 (= cell_6_1 2)))
 (let (($x413 (= cell_6_1 1)))
 (or $x413 $x2042 $x551 $x1399 $x1860 $x2040 $x1366 $x1869 $x1991)))))))))))
(assert
 (let (($x1458 (= cell_7_1 9)))
 (let (($x138 (= cell_7_1 8)))
 (let (($x779 (= cell_7_1 7)))
 (let (($x1144 (= cell_7_1 6)))
 (let (($x564 (= cell_7_1 5)))
 (let (($x1365 (= cell_7_1 4)))
 (let (($x1803 (= cell_7_1 3)))
 (let (($x738 (= cell_7_1 2)))
 (let (($x1201 (= cell_7_1 1)))
 (or $x1201 $x738 $x1803 $x1365 $x564 $x1144 $x779 $x138 $x1458)))))))))))
(assert
 (let (($x1018 (= cell_8_1 9)))
 (let (($x1131 (= cell_8_1 8)))
 (let (($x1784 (= cell_8_1 7)))
 (let (($x566 (= cell_8_1 6)))
 (let (($x1457 (= cell_8_1 5)))
 (let (($x880 (= cell_8_1 4)))
 (let (($x1617 (= cell_8_1 3)))
 (let (($x241 (= cell_8_1 2)))
 (let (($x1351 (= cell_8_1 1)))
 (or $x1351 $x241 $x1617 $x880 $x1457 $x566 $x1784 $x1131 $x1018)))))))))))
(assert
 (let (($x1565 (= cell_9_1 9)))
 (let (($x1339 (= cell_9_1 8)))
 (let (($x1322 (= cell_9_1 7)))
 (let (($x1381 (= cell_9_1 6)))
 (let (($x1877 (= cell_9_1 5)))
 (let (($x707 (= cell_9_1 4)))
 (let (($x207 (= cell_9_1 3)))
 (let (($x1284 (= cell_9_1 2)))
 (let (($x1978 (= cell_9_1 1)))
 (or $x1978 $x1284 $x207 $x707 $x1877 $x1381 $x1322 $x1339 $x1565)))))))))))
(assert
 (let (($x1474 (= cell_1_2 9)))
 (let (($x1437 (= cell_1_2 8)))
 (let (($x756 (= cell_1_2 7)))
 (let (($x1383 (= cell_1_2 6)))
 (let (($x1213 (= cell_1_2 5)))
 (let (($x1533 (= cell_1_2 4)))
 (let (($x609 (= cell_1_2 3)))
 (let (($x169 (= cell_1_2 2)))
 (let (($x1817 (= cell_1_2 1)))
 (or $x1817 $x169 $x609 $x1533 $x1213 $x1383 $x756 $x1437 $x1474)))))))))))
(assert
 (let (($x1396 (= cell_2_2 9)))
 (let (($x1567 (= cell_2_2 8)))
 (let (($x1221 (= cell_2_2 7)))
 (let (($x1722 (= cell_2_2 6)))
 (let (($x1576 (= cell_2_2 5)))
 (let (($x279 (= cell_2_2 4)))
 (let (($x909 (= cell_2_2 3)))
 (let (($x406 (= cell_2_2 2)))
 (let (($x466 (= cell_2_2 1)))
 (or $x466 $x406 $x909 $x279 $x1576 $x1722 $x1221 $x1567 $x1396)))))))))))
(assert
 (let (($x579 (= cell_3_2 9)))
 (let (($x1578 (= cell_3_2 8)))
 (let (($x1623 (= cell_3_2 7)))
 (let (($x199 (= cell_3_2 6)))
 (let (($x789 (= cell_3_2 5)))
 (let (($x1641 (= cell_3_2 4)))
 (let (($x514 (= cell_3_2 3)))
 (let (($x1595 (= cell_3_2 2)))
 (let (($x1313 (= cell_3_2 1)))
 (or $x1313 $x1595 $x514 $x1641 $x789 $x199 $x1623 $x1578 $x579)))))))))))
(assert
 (let (($x236 (= cell_4_2 9)))
 (let (($x2001 (= cell_4_2 8)))
 (let (($x1244 (= cell_4_2 7)))
 (let (($x1937 (= cell_4_2 6)))
 (let (($x23 (= cell_4_2 5)))
 (let (($x245 (= cell_4_2 4)))
 (let (($x202 (= cell_4_2 3)))
 (let (($x474 (= cell_4_2 2)))
 (let (($x1577 (= cell_4_2 1)))
 (or $x1577 $x474 $x202 $x245 $x23 $x1937 $x1244 $x2001 $x236)))))))))))
(assert
 (let (($x899 (= cell_5_2 9)))
 (let (($x1757 (= cell_5_2 8)))
 (let (($x31 (= cell_5_2 7)))
 (let (($x1260 (= cell_5_2 6)))
 (let (($x165 (= cell_5_2 5)))
 (let (($x1806 (= cell_5_2 4)))
 (let (($x462 (= cell_5_2 3)))
 (let (($x512 (= cell_5_2 2)))
 (let (($x1227 (= cell_5_2 1)))
 (or $x1227 $x512 $x462 $x1806 $x165 $x1260 $x31 $x1757 $x899)))))))))))
(assert
 (let (($x345 (= cell_6_2 9)))
 (let (($x1608 (= cell_6_2 8)))
 (let (($x449 (= cell_6_2 7)))
 (let (($x1077 (= cell_6_2 6)))
 (let (($x509 (= cell_6_2 5)))
 (let (($x538 (= cell_6_2 4)))
 (let (($x232 (= cell_6_2 3)))
 (let (($x25 (= cell_6_2 2)))
 (let (($x81 (= cell_6_2 1)))
 (or $x81 $x25 $x232 $x538 $x509 $x1077 $x449 $x1608 $x345)))))))))))
(assert
 (let (($x1690 (= cell_7_2 9)))
 (let (($x368 (= cell_7_2 8)))
 (let (($x532 (= cell_7_2 7)))
 (let (($x129 (= cell_7_2 6)))
 (let (($x1102 (= cell_7_2 5)))
 (let (($x540 (= cell_7_2 4)))
 (let (($x1635 (= cell_7_2 3)))
 (let (($x1832 (= cell_7_2 2)))
 (let (($x501 (= cell_7_2 1)))
 (or $x501 $x1832 $x1635 $x540 $x1102 $x129 $x532 $x368 $x1690)))))))))))
(assert
 (let (($x1298 (= cell_8_2 9)))
 (let (($x1942 (= cell_8_2 8)))
 (let (($x1721 (= cell_8_2 7)))
 (let (($x1093 (= cell_8_2 6)))
 (let (($x298 (= cell_8_2 5)))
 (let (($x1970 (= cell_8_2 4)))
 (let (($x392 (= cell_8_2 3)))
 (let (($x1311 (= cell_8_2 2)))
 (let (($x1698 (= cell_8_2 1)))
 (or $x1698 $x1311 $x392 $x1970 $x298 $x1093 $x1721 $x1942 $x1298)))))))))))
(assert
 (let (($x1821 (= cell_9_2 9)))
 (let (($x70 (= cell_9_2 8)))
 (let (($x1543 (= cell_9_2 7)))
 (let (($x1481 (= cell_9_2 6)))
 (let (($x1581 (= cell_9_2 5)))
 (let (($x219 (= cell_9_2 4)))
 (let (($x554 (= cell_9_2 3)))
 (let (($x660 (= cell_9_2 2)))
 (let (($x1199 (= cell_9_2 1)))
 (or $x1199 $x660 $x554 $x219 $x1581 $x1481 $x1543 $x70 $x1821)))))))))))
(assert
 (let (($x1933 (= cell_1_3 9)))
 (let (($x101 (= cell_1_3 8)))
 (let (($x403 (= cell_1_3 7)))
 (let (($x391 (= cell_1_3 6)))
 (let (($x1304 (= cell_1_3 5)))
 (let (($x799 (= cell_1_3 4)))
 (let (($x1092 (= cell_1_3 3)))
 (let (($x1264 (= cell_1_3 2)))
 (let (($x1234 (= cell_1_3 1)))
 (or $x1234 $x1264 $x1092 $x799 $x1304 $x391 $x403 $x101 $x1933)))))))))))
(assert
 (let (($x769 (= cell_2_3 9)))
 (let (($x11 (= cell_2_3 8)))
 (let (($x647 (= cell_2_3 7)))
 (let (($x686 (= cell_2_3 6)))
 (let (($x58 (= cell_2_3 5)))
 (let (($x508 (= cell_2_3 4)))
 (let (($x884 (= cell_2_3 3)))
 (let (($x729 (= cell_2_3 2)))
 (let (($x2061 (= cell_2_3 1)))
 (or $x2061 $x729 $x884 $x508 $x58 $x686 $x647 $x11 $x769)))))))))))
(assert
 (let (($x355 (= cell_3_3 9)))
 (let (($x2081 (= cell_3_3 8)))
 (let (($x486 (= cell_3_3 7)))
 (let (($x614 (= cell_3_3 6)))
 (let (($x1278 (= cell_3_3 5)))
 (let (($x1695 (= cell_3_3 4)))
 (let (($x1993 (= cell_3_3 3)))
 (let (($x315 (= cell_3_3 2)))
 (let (($x1686 (= cell_3_3 1)))
 (or $x1686 $x315 $x1993 $x1695 $x1278 $x614 $x486 $x2081 $x355)))))))))))
(assert
 (let (($x771 (= cell_4_3 9)))
 (let (($x571 (= cell_4_3 8)))
 (let (($x39 (= cell_4_3 7)))
 (let (($x188 (= cell_4_3 6)))
 (let (($x652 (= cell_4_3 5)))
 (let (($x1569 (= cell_4_3 4)))
 (let (($x1108 (= cell_4_3 3)))
 (let (($x812 (= cell_4_3 2)))
 (let (($x1759 (= cell_4_3 1)))
 (or $x1759 $x812 $x1108 $x1569 $x652 $x188 $x39 $x571 $x771)))))))))))
(assert
 (let (($x1655 (= cell_5_3 9)))
 (let (($x1850 (= cell_5_3 8)))
 (let (($x935 (= cell_5_3 7)))
 (let (($x1505 (= cell_5_3 6)))
 (let (($x261 (= cell_5_3 5)))
 (let (($x936 (= cell_5_3 4)))
 (let (($x1612 (= cell_5_3 3)))
 (let (($x97 (= cell_5_3 2)))
 (let (($x59 (= cell_5_3 1)))
 (or $x59 $x97 $x1612 $x936 $x261 $x1505 $x935 $x1850 $x1655)))))))))))
(assert
 (let (($x1138 (= cell_6_3 9)))
 (let (($x568 (= cell_6_3 8)))
 (let (($x63 (= cell_6_3 7)))
 (let (($x1248 (= cell_6_3 6)))
 (let (($x718 (= cell_6_3 5)))
 (let (($x1099 (= cell_6_3 4)))
 (let (($x206 (= cell_6_3 3)))
 (let (($x1352 (= cell_6_3 2)))
 (let (($x1258 (= cell_6_3 1)))
 (or $x1258 $x1352 $x206 $x1099 $x718 $x1248 $x63 $x568 $x1138)))))))))))
(assert
 (let (($x1000 (= cell_7_3 9)))
 (let (($x246 (= cell_7_3 8)))
 (let (($x1555 (= cell_7_3 7)))
 (let (($x37 (= cell_7_3 6)))
 (let (($x962 (= cell_7_3 5)))
 (let (($x1274 (= cell_7_3 4)))
 (let (($x331 (= cell_7_3 3)))
 (let (($x1682 (= cell_7_3 2)))
 (let (($x1370 (= cell_7_3 1)))
 (or $x1370 $x1682 $x331 $x1274 $x962 $x37 $x1555 $x246 $x1000)))))))))))
(assert
 (let (($x1990 (= cell_8_3 9)))
 (let (($x1097 (= cell_8_3 8)))
 (let (($x343 (= cell_8_3 7)))
 (let (($x667 (= cell_8_3 6)))
 (let (($x749 (= cell_8_3 5)))
 (let (($x150 (= cell_8_3 4)))
 (let (($x1938 (= cell_8_3 3)))
 (let (($x201 (= cell_8_3 2)))
 (let (($x83 (= cell_8_3 1)))
 (or $x83 $x201 $x1938 $x150 $x749 $x667 $x343 $x1097 $x1990)))))))))))
(assert
 (let (($x1428 (= cell_9_3 9)))
 (let (($x5 (= cell_9_3 8)))
 (let (($x1008 (= cell_9_3 7)))
 (let (($x1380 (= cell_9_3 6)))
 (let (($x2005 (= cell_9_3 5)))
 (let (($x76 (= cell_9_3 4)))
 (let (($x1056 (= cell_9_3 3)))
 (let (($x1070 (= cell_9_3 2)))
 (let (($x1480 (= cell_9_3 1)))
 (or $x1480 $x1070 $x1056 $x76 $x2005 $x1380 $x1008 $x5 $x1428)))))))))))
(assert
 (let (($x604 (= cell_1_4 9)))
 (let (($x1849 (= cell_1_4 8)))
 (let (($x747 (= cell_1_4 7)))
 (let (($x452 (= cell_1_4 6)))
 (let (($x1326 (= cell_1_4 5)))
 (let (($x1295 (= cell_1_4 4)))
 (let (($x1825 (= cell_1_4 3)))
 (let (($x17 (= cell_1_4 2)))
 (let (($x1177 (= cell_1_4 1)))
 (or $x1177 $x17 $x1825 $x1295 $x1326 $x452 $x747 $x1849 $x604)))))))))))
(assert
 (let (($x699 (= cell_2_4 9)))
 (let (($x1882 (= cell_2_4 8)))
 (let (($x1062 (= cell_2_4 7)))
 (let (($x43 (= cell_2_4 6)))
 (let (($x855 (= cell_2_4 5)))
 (let (($x985 (= cell_2_4 4)))
 (let (($x405 (= cell_2_4 3)))
 (let (($x1016 (= cell_2_4 2)))
 (let (($x1554 (= cell_2_4 1)))
 (or $x1554 $x1016 $x405 $x985 $x855 $x43 $x1062 $x1882 $x699)))))))))))
(assert
 (let (($x704 (= cell_3_4 9)))
 (let (($x1840 (= cell_3_4 8)))
 (let (($x1471 (= cell_3_4 7)))
 (let (($x1541 (= cell_3_4 6)))
 (let (($x1419 (= cell_3_4 5)))
 (let (($x878 (= cell_3_4 4)))
 (let (($x231 (= cell_3_4 3)))
 (let (($x1297 (= cell_3_4 2)))
 (let (($x1500 (= cell_3_4 1)))
 (or $x1500 $x1297 $x231 $x878 $x1419 $x1541 $x1471 $x1840 $x704)))))))))))
(assert
 (let (($x1544 (= cell_4_4 9)))
 (let (($x588 (= cell_4_4 8)))
 (let (($x681 (= cell_4_4 7)))
 (let (($x1637 (= cell_4_4 6)))
 (let (($x977 (= cell_4_4 5)))
 (let (($x1510 (= cell_4_4 4)))
 (let (($x1281 (= cell_4_4 3)))
 (let (($x1411 (= cell_4_4 2)))
 (let (($x800 (= cell_4_4 1)))
 (or $x800 $x1411 $x1281 $x1510 $x977 $x1637 $x681 $x588 $x1544)))))))))))
(assert
 (let (($x2087 (= cell_5_4 9)))
 (let (($x1494 (= cell_5_4 8)))
 (let (($x1754 (= cell_5_4 7)))
 (let (($x478 (= cell_5_4 6)))
 (let (($x656 (= cell_5_4 5)))
 (let (($x304 (= cell_5_4 4)))
 (let (($x1903 (= cell_5_4 3)))
 (let (($x1625 (= cell_5_4 2)))
 (let (($x1582 (= cell_5_4 1)))
 (or $x1582 $x1625 $x1903 $x304 $x656 $x478 $x1754 $x1494 $x2087)))))))))))
(assert
 (let (($x1154 (= cell_6_4 9)))
 (let (($x414 (= cell_6_4 8)))
 (let (($x1790 (= cell_6_4 7)))
 (let (($x393 (= cell_6_4 6)))
 (let (($x895 (= cell_6_4 5)))
 (let (($x380 (= cell_6_4 4)))
 (let (($x1920 (= cell_6_4 3)))
 (let (($x1079 (= cell_6_4 2)))
 (let (($x1684 (= cell_6_4 1)))
 (or $x1684 $x1079 $x1920 $x380 $x895 $x393 $x1790 $x414 $x1154)))))))))))
(assert
 (let (($x1518 (= cell_7_4 9)))
 (let (($x68 (= cell_7_4 8)))
 (let (($x1523 (= cell_7_4 7)))
 (let (($x1290 (= cell_7_4 6)))
 (let (($x1728 (= cell_7_4 5)))
 (let (($x1599 (= cell_7_4 4)))
 (let (($x1779 (= cell_7_4 3)))
 (let (($x644 (= cell_7_4 2)))
 (let (($x631 (= cell_7_4 1)))
 (or $x631 $x644 $x1779 $x1599 $x1728 $x1290 $x1523 $x68 $x1518)))))))))))
(assert
 (let (($x732 (= cell_8_4 9)))
 (let (($x1629 (= cell_8_4 8)))
 (let (($x358 (= cell_8_4 7)))
 (let (($x319 (= cell_8_4 6)))
 (let (($x447 (= cell_8_4 5)))
 (let (($x1812 (= cell_8_4 4)))
 (let (($x915 (= cell_8_4 3)))
 (let (($x1875 (= cell_8_4 2)))
 (let (($x1604 (= cell_8_4 1)))
 (or $x1604 $x1875 $x915 $x1812 $x447 $x319 $x358 $x1629 $x732)))))))))))
(assert
 (let (($x1214 (= cell_9_4 9)))
 (let (($x925 (= cell_9_4 8)))
 (let (($x525 (= cell_9_4 7)))
 (let (($x1377 (= cell_9_4 6)))
 (let (($x970 (= cell_9_4 5)))
 (let (($x1537 (= cell_9_4 4)))
 (let (($x1230 (= cell_9_4 3)))
 (let (($x1772 (= cell_9_4 2)))
 (let (($x635 (= cell_9_4 1)))
 (or $x635 $x1772 $x1230 $x1537 $x970 $x1377 $x525 $x925 $x1214)))))))))))
(assert
 (let (($x1228 (= cell_1_5 9)))
 (let (($x838 (= cell_1_5 8)))
 (let (($x211 (= cell_1_5 7)))
 (let (($x454 (= cell_1_5 6)))
 (let (($x1240 (= cell_1_5 5)))
 (let (($x1002 (= cell_1_5 4)))
 (let (($x1150 (= cell_1_5 3)))
 (let (($x885 (= cell_1_5 2)))
 (let (($x1078 (= cell_1_5 1)))
 (or $x1078 $x885 $x1150 $x1002 $x1240 $x454 $x211 $x838 $x1228)))))))))))
(assert
 (let (($x342 (= cell_2_5 9)))
 (let (($x858 (= cell_2_5 8)))
 (let (($x1113 (= cell_2_5 7)))
 (let (($x1465 (= cell_2_5 6)))
 (let (($x1477 (= cell_2_5 5)))
 (let (($x1128 (= cell_2_5 4)))
 (let (($x953 (= cell_2_5 3)))
 (let (($x1167 (= cell_2_5 2)))
 (let (($x1066 (= cell_2_5 1)))
 (or $x1066 $x1167 $x953 $x1128 $x1477 $x1465 $x1113 $x858 $x342)))))))))))
(assert
 (let (($x2072 (= cell_3_5 9)))
 (let (($x1705 (= cell_3_5 8)))
 (let (($x384 (= cell_3_5 7)))
 (let (($x679 (= cell_3_5 6)))
 (let (($x399 (= cell_3_5 5)))
 (let (($x1502 (= cell_3_5 4)))
 (let (($x1959 (= cell_3_5 3)))
 (let (($x1583 (= cell_3_5 2)))
 (let (($x1340 (= cell_3_5 1)))
 (or $x1340 $x1583 $x1959 $x1502 $x399 $x679 $x384 $x1705 $x2072)))))))))))
(assert
 (let (($x72 (= cell_4_5 9)))
 (let (($x67 (= cell_4_5 8)))
 (let (($x299 (= cell_4_5 7)))
 (let (($x640 (= cell_4_5 6)))
 (let (($x493 (= cell_4_5 5)))
 (let (($x1384 (= cell_4_5 4)))
 (let (($x376 (= cell_4_5 3)))
 (let (($x1455 (= cell_4_5 2)))
 (let (($x1960 (= cell_4_5 1)))
 (or $x1960 $x1455 $x376 $x1384 $x493 $x640 $x299 $x67 $x72)))))))))))
(assert
 (let (($x978 (= cell_5_5 9)))
 (let (($x1287 (= cell_5_5 8)))
 (let (($x877 (= cell_5_5 7)))
 (let (($x1674 (= cell_5_5 6)))
 (let (($x722 (= cell_5_5 5)))
 (let (($x1090 (= cell_5_5 4)))
 (let (($x948 (= cell_5_5 3)))
 (let (($x1404 (= cell_5_5 2)))
 (let (($x971 (= cell_5_5 1)))
 (or $x971 $x1404 $x948 $x1090 $x722 $x1674 $x877 $x1287 $x978)))))))))))
(assert
 (let (($x1239 (= cell_6_5 9)))
 (let (($x1506 (= cell_6_5 8)))
 (let (($x167 (= cell_6_5 7)))
 (let (($x1447 (= cell_6_5 6)))
 (let (($x1538 (= cell_6_5 5)))
 (let (($x66 (= cell_6_5 4)))
 (let (($x451 (= cell_6_5 3)))
 (let (($x1127 (= cell_6_5 2)))
 (let (($x1425 (= cell_6_5 1)))
 (or $x1425 $x1127 $x451 $x66 $x1538 $x1447 $x167 $x1506 $x1239)))))))))))
(assert
 (let (($x1652 (= cell_7_5 9)))
 (let (($x1170 (= cell_7_5 8)))
 (let (($x643 (= cell_7_5 7)))
 (let (($x797 (= cell_7_5 6)))
 (let (($x833 (= cell_7_5 5)))
 (let (($x791 (= cell_7_5 4)))
 (let (($x886 (= cell_7_5 3)))
 (let (($x1837 (= cell_7_5 2)))
 (let (($x1285 (= cell_7_5 1)))
 (or $x1285 $x1837 $x886 $x791 $x833 $x797 $x643 $x1170 $x1652)))))))))))
(assert
 (let (($x410 (= cell_8_5 9)))
 (let (($x1021 (= cell_8_5 8)))
 (let (($x1742 (= cell_8_5 7)))
 (let (($x1528 (= cell_8_5 6)))
 (let (($x599 (= cell_8_5 5)))
 (let (($x539 (= cell_8_5 4)))
 (let (($x1236 (= cell_8_5 3)))
 (let (($x910 (= cell_8_5 2)))
 (let (($x1312 (= cell_8_5 1)))
 (or $x1312 $x910 $x1236 $x539 $x599 $x1528 $x1742 $x1021 $x410)))))))))))
(assert
 (let (($x1450 (= cell_9_5 9)))
 (let (($x1136 (= cell_9_5 8)))
 (let (($x987 (= cell_9_5 7)))
 (let (($x965 (= cell_9_5 6)))
 (let (($x1109 (= cell_9_5 5)))
 (let (($x33 (= cell_9_5 4)))
 (let (($x382 (= cell_9_5 3)))
 (let (($x2013 (= cell_9_5 2)))
 (let (($x1904 (= cell_9_5 1)))
 (or $x1904 $x2013 $x382 $x33 $x1109 $x965 $x987 $x1136 $x1450)))))))))))
(assert
 (let (($x463 (= cell_1_6 9)))
 (let (($x1804 (= cell_1_6 8)))
 (let (($x1969 (= cell_1_6 7)))
 (let (($x750 (= cell_1_6 6)))
 (let (($x621 (= cell_1_6 5)))
 (let (($x1513 (= cell_1_6 4)))
 (let (($x795 (= cell_1_6 3)))
 (let (($x2033 (= cell_1_6 2)))
 (let (($x1350 (= cell_1_6 1)))
 (or $x1350 $x2033 $x795 $x1513 $x621 $x750 $x1969 $x1804 $x463)))))))))))
(assert
 (let (($x1076 (= cell_2_6 9)))
 (let (($x587 (= cell_2_6 8)))
 (let (($x563 (= cell_2_6 7)))
 (let (($x871 (= cell_2_6 6)))
 (let (($x1872 (= cell_2_6 5)))
 (let (($x796 (= cell_2_6 4)))
 (let (($x1392 (= cell_2_6 3)))
 (let (($x303 (= cell_2_6 2)))
 (let (($x1725 (= cell_2_6 1)))
 (or $x1725 $x303 $x1392 $x796 $x1872 $x871 $x563 $x587 $x1076)))))))))))
(assert
 (let (($x21 (= cell_3_6 9)))
 (let (($x15 (= cell_3_6 8)))
 (let (($x542 (= cell_3_6 7)))
 (let (($x934 (= cell_3_6 6)))
 (let (($x804 (= cell_3_6 5)))
 (let (($x751 (= cell_3_6 4)))
 (let (($x385 (= cell_3_6 3)))
 (let (($x1142 (= cell_3_6 2)))
 (let (($x1514 (= cell_3_6 1)))
 (or $x1514 $x1142 $x385 $x751 $x804 $x934 $x542 $x15 $x21)))))))))))
(assert
 (let (($x1931 (= cell_4_6 9)))
 (let (($x1407 (= cell_4_6 8)))
 (let (($x1152 (= cell_4_6 7)))
 (let (($x576 (= cell_4_6 6)))
 (let (($x1390 (= cell_4_6 5)))
 (let (($x1309 (= cell_4_6 4)))
 (let (($x1275 (= cell_4_6 3)))
 (let (($x1805 (= cell_4_6 2)))
 (let (($x1323 (= cell_4_6 1)))
 (or $x1323 $x1805 $x1275 $x1309 $x1390 $x576 $x1152 $x1407 $x1931)))))))))))
(assert
 (let (($x332 (= cell_5_6 9)))
 (let (($x1633 (= cell_5_6 8)))
 (let (($x2009 (= cell_5_6 7)))
 (let (($x277 (= cell_5_6 6)))
 (let (($x1730 (= cell_5_6 5)))
 (let (($x1087 (= cell_5_6 4)))
 (let (($x1169 (= cell_5_6 3)))
 (let (($x887 (= cell_5_6 2)))
 (let (($x1466 (= cell_5_6 1)))
 (or $x1466 $x887 $x1169 $x1087 $x1730 $x277 $x2009 $x1633 $x332)))))))))))
(assert
 (let (($x933 (= cell_6_6 9)))
 (let (($x891 (= cell_6_6 8)))
 (let (($x928 (= cell_6_6 7)))
 (let (($x123 (= cell_6_6 6)))
 (let (($x613 (= cell_6_6 5)))
 (let (($x1584 (= cell_6_6 4)))
 (let (($x842 (= cell_6_6 3)))
 (let (($x968 (= cell_6_6 2)))
 (let (($x775 (= cell_6_6 1)))
 (or $x775 $x968 $x842 $x1584 $x613 $x123 $x928 $x891 $x933)))))))))))
(assert
 (let (($x1251 (= cell_7_6 9)))
 (let (($x926 (= cell_7_6 8)))
 (let (($x1681 (= cell_7_6 7)))
 (let (($x639 (= cell_7_6 6)))
 (let (($x1247 (= cell_7_6 5)))
 (let (($x320 (= cell_7_6 4)))
 (let (($x959 (= cell_7_6 3)))
 (let (($x605 (= cell_7_6 2)))
 (let (($x395 (= cell_7_6 1)))
 (or $x395 $x605 $x959 $x320 $x1247 $x639 $x1681 $x926 $x1251)))))))))))
(assert
 (let (($x1040 (= cell_8_6 9)))
 (let (($x972 (= cell_8_6 8)))
 (let (($x2027 (= cell_8_6 7)))
 (let (($x157 (= cell_8_6 6)))
 (let (($x1052 (= cell_8_6 5)))
 (let (($x1180 (= cell_8_6 4)))
 (let (($x689 (= cell_8_6 3)))
 (let (($x1272 (= cell_8_6 2)))
 (let (($x1586 (= cell_8_6 1)))
 (or $x1586 $x1272 $x689 $x1180 $x1052 $x157 $x2027 $x972 $x1040)))))))))))
(assert
 (let (($x1086 (= cell_9_6 9)))
 (let (($x664 (= cell_9_6 8)))
 (let (($x323 (= cell_9_6 7)))
 (let (($x1677 (= cell_9_6 6)))
 (let (($x2036 (= cell_9_6 5)))
 (let (($x1746 (= cell_9_6 4)))
 (let (($x1356 (= cell_9_6 3)))
 (let (($x51 (= cell_9_6 2)))
 (let (($x1346 (= cell_9_6 1)))
 (or $x1346 $x51 $x1356 $x1746 $x2036 $x1677 $x323 $x664 $x1086)))))))))))
(assert
 (let (($x1342 (= cell_1_7 9)))
 (let (($x1845 (= cell_1_7 8)))
 (let (($x230 (= cell_1_7 7)))
 (let (($x1587 (= cell_1_7 6)))
 (let (($x2048 (= cell_1_7 5)))
 (let (($x906 (= cell_1_7 4)))
 (let (($x1436 (= cell_1_7 3)))
 (let (($x453 (= cell_1_7 2)))
 (let (($x1716 (= cell_1_7 1)))
 (or $x1716 $x453 $x1436 $x906 $x2048 $x1587 $x230 $x1845 $x1342)))))))))))
(assert
 (let (($x1111 (= cell_2_7 9)))
 (let (($x1717 (= cell_2_7 8)))
 (let (($x1398 (= cell_2_7 7)))
 (let (($x273 (= cell_2_7 6)))
 (let (($x677 (= cell_2_7 5)))
 (let (($x589 (= cell_2_7 4)))
 (let (($x134 (= cell_2_7 3)))
 (let (($x1249 (= cell_2_7 2)))
 (let (($x963 (= cell_2_7 1)))
 (or $x963 $x1249 $x134 $x589 $x677 $x273 $x1398 $x1717 $x1111)))))))))))
(assert
 (let (($x1044 (= cell_3_7 9)))
 (let (($x80 (= cell_3_7 8)))
 (let (($x1606 (= cell_3_7 7)))
 (let (($x969 (= cell_3_7 6)))
 (let (($x1613 (= cell_3_7 5)))
 (let (($x1026 (= cell_3_7 4)))
 (let (($x534 (= cell_3_7 3)))
 (let (($x1495 (= cell_3_7 2)))
 (let (($x1462 (= cell_3_7 1)))
 (or $x1462 $x1495 $x534 $x1026 $x1613 $x969 $x1606 $x80 $x1044)))))))))))
(assert
 (let (($x1640 (= cell_4_7 9)))
 (let (($x1522 (= cell_4_7 8)))
 (let (($x1781 (= cell_4_7 7)))
 (let (($x1463 (= cell_4_7 6)))
 (let (($x1393 (= cell_4_7 5)))
 (let (($x1934 (= cell_4_7 4)))
 (let (($x499 (= cell_4_7 3)))
 (let (($x1831 (= cell_4_7 2)))
 (let (($x439 (= cell_4_7 1)))
 (or $x439 $x1831 $x499 $x1934 $x1393 $x1463 $x1781 $x1522 $x1640)))))))))))
(assert
 (let (($x1715 (= cell_5_7 9)))
 (let (($x1206 (= cell_5_7 8)))
 (let (($x473 (= cell_5_7 7)))
 (let (($x1610 (= cell_5_7 6)))
 (let (($x1847 (= cell_5_7 5)))
 (let (($x54 (= cell_5_7 4)))
 (let (($x2010 (= cell_5_7 3)))
 (let (($x862 (= cell_5_7 2)))
 (let (($x1663 (= cell_5_7 1)))
 (or $x1663 $x862 $x2010 $x54 $x1847 $x1610 $x473 $x1206 $x1715)))))))))))
(assert
 (let (($x339 (= cell_6_7 9)))
 (let (($x1343 (= cell_6_7 8)))
 (let (($x1385 (= cell_6_7 7)))
 (let (($x1801 (= cell_6_7 6)))
 (let (($x1487 (= cell_6_7 5)))
 (let (($x592 (= cell_6_7 4)))
 (let (($x748 (= cell_6_7 3)))
 (let (($x1539 (= cell_6_7 2)))
 (let (($x1483 (= cell_6_7 1)))
 (or $x1483 $x1539 $x748 $x592 $x1487 $x1801 $x1385 $x1343 $x339)))))))))))
(assert
 (let (($x806 (= cell_7_7 9)))
 (let (($x648 (= cell_7_7 8)))
 (let (($x841 (= cell_7_7 7)))
 (let (($x379 (= cell_7_7 6)))
 (let (($x1710 (= cell_7_7 5)))
 (let (($x308 (= cell_7_7 4)))
 (let (($x175 (= cell_7_7 3)))
 (let (($x1941 (= cell_7_7 2)))
 (let (($x692 (= cell_7_7 1)))
 (or $x692 $x1941 $x175 $x308 $x1710 $x379 $x841 $x648 $x806)))))))))))
(assert
 (let (($x336 (= cell_8_7 9)))
 (let (($x1149 (= cell_8_7 8)))
 (let (($x1469 (= cell_8_7 7)))
 (let (($x394 (= cell_8_7 6)))
 (let (($x502 (= cell_8_7 5)))
 (let (($x418 (= cell_8_7 4)))
 (let (($x163 (= cell_8_7 3)))
 (let (($x1438 (= cell_8_7 2)))
 (let (($x457 (= cell_8_7 1)))
 (or $x457 $x1438 $x163 $x418 $x502 $x394 $x1469 $x1149 $x336)))))))))))
(assert
 (let (($x1802 (= cell_9_7 9)))
 (let (($x988 (= cell_9_7 8)))
 (let (($x773 (= cell_9_7 7)))
 (let (($x2057 (= cell_9_7 6)))
 (let (($x22 (= cell_9_7 5)))
 (let (($x1083 (= cell_9_7 4)))
 (let (($x627 (= cell_9_7 3)))
 (let (($x646 (= cell_9_7 2)))
 (let (($x1549 (= cell_9_7 1)))
 (or $x1549 $x646 $x627 $x1083 $x22 $x2057 $x773 $x988 $x1802)))))))))))
(assert
 (let (($x1173 (= cell_1_8 9)))
 (let (($x1080 (= cell_1_8 8)))
 (let (($x518 (= cell_1_8 7)))
 (let (($x483 (= cell_1_8 6)))
 (let (($x834 (= cell_1_8 5)))
 (let (($x359 (= cell_1_8 4)))
 (let (($x517 (= cell_1_8 3)))
 (let (($x1981 (= cell_1_8 2)))
 (let (($x759 (= cell_1_8 1)))
 (or $x759 $x1981 $x517 $x359 $x834 $x483 $x518 $x1080 $x1173)))))))))))
(assert
 (let (($x1055 (= cell_2_8 9)))
 (let (($x374 (= cell_2_8 8)))
 (let (($x372 (= cell_2_8 7)))
 (let (($x1225 (= cell_2_8 6)))
 (let (($x367 (= cell_2_8 5)))
 (let (($x1197 (= cell_2_8 4)))
 (let (($x2115 (= cell_2_8 3)))
 (let (($x1704 (= cell_2_8 2)))
 (let (($x119 (= cell_2_8 1)))
 (or $x119 $x1704 $x2115 $x1197 $x367 $x1225 $x372 $x374 $x1055)))))))))))
(assert
 (let (($x1117 (= cell_3_8 9)))
 (let (($x1406 (= cell_3_8 8)))
 (let (($x1242 (= cell_3_8 7)))
 (let (($x2076 (= cell_3_8 6)))
 (let (($x687 (= cell_3_8 5)))
 (let (($x1074 (= cell_3_8 4)))
 (let (($x1788 (= cell_3_8 3)))
 (let (($x1926 (= cell_3_8 2)))
 (let (($x490 (= cell_3_8 1)))
 (or $x490 $x1926 $x1788 $x1074 $x687 $x2076 $x1242 $x1406 $x1117)))))))))))
(assert
 (let (($x1708 (= cell_4_8 9)))
 (let (($x772 (= cell_4_8 8)))
 (let (($x1814 (= cell_4_8 7)))
 (let (($x1119 (= cell_4_8 6)))
 (let (($x91 (= cell_4_8 5)))
 (let (($x85 (= cell_4_8 4)))
 (let (($x2018 (= cell_4_8 3)))
 (let (($x1014 (= cell_4_8 2)))
 (let (($x329 (= cell_4_8 1)))
 (or $x329 $x1014 $x2018 $x85 $x91 $x1119 $x1814 $x772 $x1708)))))))))))
(assert
 (let (($x1535 (= cell_5_8 9)))
 (let (($x2053 (= cell_5_8 8)))
 (let (($x1915 (= cell_5_8 7)))
 (let (($x1862 (= cell_5_8 6)))
 (let (($x1846 (= cell_5_8 5)))
 (let (($x317 (= cell_5_8 4)))
 (let (($x266 (= cell_5_8 3)))
 (let (($x389 (= cell_5_8 2)))
 (let (($x1460 (= cell_5_8 1)))
 (or $x1460 $x389 $x266 $x317 $x1846 $x1862 $x1915 $x2053 $x1535)))))))))))
(assert
 (let (($x366 (= cell_6_8 9)))
 (let (($x1792 (= cell_6_8 8)))
 (let (($x615 (= cell_6_8 7)))
 (let (($x1188 (= cell_6_8 6)))
 (let (($x47 (= cell_6_8 5)))
 (let (($x1254 (= cell_6_8 4)))
 (let (($x1691 (= cell_6_8 3)))
 (let (($x155 (= cell_6_8 2)))
 (let (($x1162 (= cell_6_8 1)))
 (or $x1162 $x155 $x1691 $x1254 $x47 $x1188 $x615 $x1792 $x366)))))))))))
(assert
 (let (($x1482 (= cell_7_8 9)))
 (let (($x1491 (= cell_7_8 8)))
 (let (($x951 (= cell_7_8 7)))
 (let (($x1279 (= cell_7_8 6)))
 (let (($x1679 (= cell_7_8 5)))
 (let (($x1699 (= cell_7_8 4)))
 (let (($x2074 (= cell_7_8 3)))
 (let (($x1332 (= cell_7_8 2)))
 (let (($x516 (= cell_7_8 1)))
 (or $x516 $x1332 $x2074 $x1699 $x1679 $x1279 $x951 $x1491 $x1482)))))))))))
(assert
 (let (($x611 (= cell_8_8 9)))
 (let (($x1132 (= cell_8_8 8)))
 (let (($x700 (= cell_8_8 7)))
 (let (($x730 (= cell_8_8 6)))
 (let (($x983 (= cell_8_8 5)))
 (let (($x19 (= cell_8_8 4)))
 (let (($x1429 (= cell_8_8 3)))
 (let (($x2031 (= cell_8_8 2)))
 (let (($x352 (= cell_8_8 1)))
 (or $x352 $x2031 $x1429 $x19 $x983 $x730 $x700 $x1132 $x611)))))))))))
(assert
 (let (($x1069 (= cell_9_8 9)))
 (let (($x785 (= cell_9_8 8)))
 (let (($x1995 (= cell_9_8 7)))
 (let (($x670 (= cell_9_8 6)))
 (let (($x818 (= cell_9_8 5)))
 (let (($x28 (= cell_9_8 4)))
 (let (($x238 (= cell_9_8 3)))
 (let (($x728 (= cell_9_8 2)))
 (let (($x1192 (= cell_9_8 1)))
 (or $x1192 $x728 $x238 $x28 $x818 $x670 $x1995 $x785 $x1069)))))))))))
(assert
 (let (($x1065 (= cell_1_9 9)))
 (let (($x2030 (= cell_1_9 8)))
 (let (($x938 (= cell_1_9 7)))
 (let (($x1456 (= cell_1_9 6)))
 (let (($x1207 (= cell_1_9 5)))
 (let (($x889 (= cell_1_9 4)))
 (let (($x257 (= cell_1_9 3)))
 (let (($x1368 (= cell_1_9 2)))
 (let (($x1731 (= cell_1_9 1)))
 (or $x1731 $x1368 $x257 $x889 $x1207 $x1456 $x938 $x2030 $x1065)))))))))))
(assert
 (let (($x1454 (= cell_2_9 9)))
 (let (($x1534 (= cell_2_9 8)))
 (let (($x622 (= cell_2_9 7)))
 (let (($x1842 (= cell_2_9 6)))
 (let (($x1902 (= cell_2_9 5)))
 (let (($x458 (= cell_2_9 4)))
 (let (($x18 (= cell_2_9 3)))
 (let (($x1562 (= cell_2_9 2)))
 (let (($x203 (= cell_2_9 1)))
 (or $x203 $x1562 $x18 $x458 $x1902 $x1842 $x622 $x1534 $x1454)))))))))))
(assert
 (let (($x348 (= cell_3_9 9)))
 (let (($x684 (= cell_3_9 8)))
 (let (($x456 (= cell_3_9 7)))
 (let (($x1561 (= cell_3_9 6)))
 (let (($x998 (= cell_3_9 5)))
 (let (($x898 (= cell_3_9 4)))
 (let (($x42 (= cell_3_9 3)))
 (let (($x176 (= cell_3_9 2)))
 (let (($x181 (= cell_3_9 1)))
 (or $x181 $x176 $x42 $x898 $x998 $x1561 $x456 $x684 $x348)))))))))))
(assert
 (let (($x853 (= cell_4_9 9)))
 (let (($x1232 (= cell_4_9 8)))
 (let (($x360 (= cell_4_9 7)))
 (let (($x557 (= cell_4_9 6)))
 (let (($x1303 (= cell_4_9 5)))
 (let (($x817 (= cell_4_9 4)))
 (let (($x450 (= cell_4_9 3)))
 (let (($x685 (= cell_4_9 2)))
 (let (($x702 (= cell_4_9 1)))
 (or $x702 $x685 $x450 $x817 $x1303 $x557 $x360 $x1232 $x853)))))))))))
(assert
 (let (($x327 (= cell_5_9 9)))
 (let (($x781 (= cell_5_9 8)))
 (let (($x460 (= cell_5_9 7)))
 (let (($x1770 (= cell_5_9 6)))
 (let (($x2032 (= cell_5_9 5)))
 (let (($x1084 (= cell_5_9 4)))
 (let (($x1194 (= cell_5_9 3)))
 (let (($x1088 (= cell_5_9 2)))
 (let (($x1519 (= cell_5_9 1)))
 (or $x1519 $x1088 $x1194 $x1084 $x2032 $x1770 $x460 $x781 $x327)))))))))))
(assert
 (let (($x476 (= cell_6_9 9)))
 (let (($x1621 (= cell_6_9 8)))
 (let (($x1743 (= cell_6_9 7)))
 (let (($x387 (= cell_6_9 6)))
 (let (($x430 (= cell_6_9 5)))
 (let (($x1797 (= cell_6_9 4)))
 (let (($x419 (= cell_6_9 3)))
 (let (($x346 (= cell_6_9 2)))
 (let (($x1789 (= cell_6_9 1)))
 (or $x1789 $x346 $x419 $x1797 $x430 $x387 $x1743 $x1621 $x476)))))))))))
(assert
 (let (($x289 (= cell_7_9 9)))
 (let (($x1871 (= cell_7_9 8)))
 (let (($x1498 (= cell_7_9 7)))
 (let (($x1019 (= cell_7_9 6)))
 (let (($x244 (= cell_7_9 5)))
 (let (($x1321 (= cell_7_9 4)))
 (let (($x1594 (= cell_7_9 3)))
 (let (($x86 (= cell_7_9 2)))
 (let (($x746 (= cell_7_9 1)))
 (or $x746 $x86 $x1594 $x1321 $x244 $x1019 $x1498 $x1871 $x289)))))))))))
(assert
 (let (($x1685 (= cell_8_9 9)))
 (let (($x114 (= cell_8_9 8)))
 (let (($x852 (= cell_8_9 7)))
 (let (($x2011 (= cell_8_9 6)))
 (let (($x1764 (= cell_8_9 5)))
 (let (($x365 (= cell_8_9 4)))
 (let (($x1007 (= cell_8_9 3)))
 (let (($x850 (= cell_8_9 2)))
 (let (($x1982 (= cell_8_9 1)))
 (or $x1982 $x850 $x1007 $x365 $x1764 $x2011 $x852 $x114 $x1685)))))))))))
(assert
 (let (($x1031 (= cell_9_9 9)))
 (let (($x2019 (= cell_9_9 8)))
 (let (($x1939 (= cell_9_9 7)))
 (let (($x991 (= cell_9_9 6)))
 (let (($x427 (= cell_9_9 5)))
 (let (($x1386 (= cell_9_9 4)))
 (let (($x745 (= cell_9_9 3)))
 (let (($x1532 (= cell_9_9 2)))
 (let (($x287 (= cell_9_9 1)))
 (or $x287 $x1532 $x745 $x1386 $x427 $x991 $x1939 $x2019 $x1031)))))))))))
(assert
 (and (distinct cell_1_1 cell_1_2 cell_1_3 cell_1_4 cell_1_5 cell_1_6 cell_1_7 cell_1_8 cell_1_9) true))
(assert
 (and (distinct cell_2_1 cell_2_2 cell_2_3 cell_2_4 cell_2_5 cell_2_6 cell_2_7 cell_2_8 cell_2_9) true))
(assert
 (and (distinct cell_3_1 cell_3_2 cell_3_3 cell_3_4 cell_3_5 cell_3_6 cell_3_7 cell_3_8 cell_3_9) true))
(assert
 (and (distinct cell_4_1 cell_4_2 cell_4_3 cell_4_4 cell_4_5 cell_4_6 cell_4_7 cell_4_8 cell_4_9) true))
(assert
 (and (distinct cell_5_1 cell_5_2 cell_5_3 cell_5_4 cell_5_5 cell_5_6 cell_5_7 cell_5_8 cell_5_9) true))
(assert
 (and (distinct cell_6_1 cell_6_2 cell_6_3 cell_6_4 cell_6_5 cell_6_6 cell_6_7 cell_6_8 cell_6_9) true))
(assert
 (and (distinct cell_7_1 cell_7_2 cell_7_3 cell_7_4 cell_7_5 cell_7_6 cell_7_7 cell_7_8 cell_7_9) true))
(assert
 (and (distinct cell_8_1 cell_8_2 cell_8_3 cell_8_4 cell_8_5 cell_8_6 cell_8_7 cell_8_8 cell_8_9) true))
(assert
 (and (distinct cell_9_1 cell_9_2 cell_9_3 cell_9_4 cell_9_5 cell_9_6 cell_9_7 cell_9_8 cell_9_9) true))
(assert
 (and (distinct cell_1_1 cell_2_1 cell_3_1 cell_4_1 cell_5_1 cell_6_1 cell_7_1 cell_8_1 cell_9_1) true))
(assert
 (and (distinct cell_1_2 cell_2_2 cell_3_2 cell_4_2 cell_5_2 cell_6_2 cell_7_2 cell_8_2 cell_9_2) true))
(assert
 (and (distinct cell_1_3 cell_2_3 cell_3_3 cell_4_3 cell_5_3 cell_6_3 cell_7_3 cell_8_3 cell_9_3) true))
(assert
 (and (distinct cell_1_4 cell_2_4 cell_3_4 cell_4_4 cell_5_4 cell_6_4 cell_7_4 cell_8_4 cell_9_4) true))
(assert
 (and (distinct cell_1_5 cell_2_5 cell_3_5 cell_4_5 cell_5_5 cell_6_5 cell_7_5 cell_8_5 cell_9_5) true))
(assert
 (and (distinct cell_1_6 cell_2_6 cell_3_6 cell_4_6 cell_5_6 cell_6_6 cell_7_6 cell_8_6 cell_9_6) true))
(assert
 (and (distinct cell_1_7 cell_2_7 cell_3_7 cell_4_7 cell_5_7 cell_6_7 cell_7_7 cell_8_7 cell_9_7) true))
(assert
 (and (distinct cell_1_8 cell_2_8 cell_3_8 cell_4_8 cell_5_8 cell_6_8 cell_7_8 cell_8_8 cell_9_8) true))
(assert
 (and (distinct cell_1_9 cell_2_9 cell_3_9 cell_4_9 cell_5_9 cell_6_9 cell_7_9 cell_8_9 cell_9_9) true))
(assert
 (and (distinct cell_1_1 cell_1_2 cell_1_3 cell_2_1 cell_2_2 cell_2_3 cell_3_1 cell_3_2 cell_3_3) true))
(assert
 (and (distinct cell_1_4 cell_1_5 cell_1_6 cell_2_4 cell_2_5 cell_2_6 cell_3_4 cell_3_5 cell_3_6) true))
(assert
 (and (distinct cell_1_7 cell_1_8 cell_1_9 cell_2_7 cell_2_8 cell_2_9 cell_3_7 cell_3_8 cell_3_9) true))
(assert
 (and (distinct cell_4_1 cell_4_2 cell_4_3 cell_5_1 cell_5_2 cell_5_3 cell_6_1 cell_6_2 cell_6_3) true))
(assert
 (and (distinct cell_4_4 cell_4_5 cell_4_6 cell_5_4 cell_5_5 cell_5_6 cell_6_4 cell_6_5 cell_6_6) true))
(assert
 (and (distinct cell_4_7 cell_4_8 cell_4_9 cell_5_7 cell_5_8 cell_5_9 cell_6_7 cell_6_8 cell_6_9) true))
(assert
 (and (distinct cell_7_1 cell_7_2 cell_7_3 cell_8_1 cell_8_2 cell_8_3 cell_9_1 cell_9_2 cell_9_3) true))
(assert
 (and (distinct cell_7_4 cell_7_5 cell_7_6 cell_8_4 cell_8_5 cell_8_6 cell_9_4 cell_9_5 cell_9_6) true))
(assert
 (and (distinct cell_7_7 cell_7_8 cell_7_9 cell_8_7 cell_8_8 cell_8_9 cell_9_7 cell_9_8 cell_9_9) true))
(assert
 (let (($x1557 (and (distinct cell_5_9 cell_6_8 cell_7_7 cell_8_6) true)))
 (let (($x87 (and (distinct cell_2_9 cell_3_8 cell_4_7 cell_5_6 cell_6_5 cell_7_4 cell_8_3 cell_9_2) true)))
 (let (($x786 (and (distinct cell_1_8 cell_2_7 cell_3_6 cell_4_5 cell_5_4 cell_6_3 cell_7_2 cell_8_1) true)))
 (let (($x674 (and (distinct cell_1_5 cell_2_4 cell_3_3 cell_4_2) true)))
 (let (($x99 (and (distinct cell_5_1 cell_6_2 cell_7_3 cell_8_4) true)))
 (let (($x1371 (and (distinct cell_2_1 cell_3_2 cell_4_3 cell_5_4 cell_6_5 cell_7_6 cell_8_7 cell_9_8) true)))
 (let (($x44 (and (distinct cell_1_2 cell_2_3 cell_3_4 cell_4_5 cell_5_6 cell_6_7 cell_7_8 cell_8_9) true)))
 (let (($x1666 (and (distinct cell_1_5 cell_2_6 cell_3_7 cell_4_8) true)))
 (and $x1666 $x44 $x1371 $x99 $x674 $x786 $x87 $x1557))))))))))
(assert
 (= cell_1_4 1))
(assert
 (= cell_2_2 1))
(assert
 (= cell_3_8 1))
(assert
 (= cell_4_5 1))
(assert
 (= cell_5_7 1))
(assert
 (= cell_6_1 1))
(assert
 (= cell_7_3 1))
(assert
 (= cell_8_6 1))
(assert
 (= cell_9_9 1))
(assert
 (= cell_1_6 2))
(assert
 (= cell_2_9 2))
(assert
 (= cell_3_1 2))
(assert
 (= cell_4_8 2))
(assert
 (= cell_5_4 2))
(assert
 (= cell_6_2 2))
(assert
 (= cell_7_7 2))
(assert
 (= cell_8_5 2))
(assert
 (= cell_9_3 2))
(assert
 (= cell_1_7 3))
(assert
 (= cell_2_1 3))
(assert
 (= cell_3_4 3))
(assert
 (= cell_4_6 3))
(check-sat)

